# ---------------------
# INITIALIZE SIMULATION 
# ---------------------
units metal 
dimension 3
boundary p p p
atom_style 		atomic
atom_modify map array

# ---------------------
# DEFINE REGIONS 
# ---------------------
region R0 	block 0 20 0 20 0 20 units box 

# ---------------------
# CREATE ATOMS 
# ---------------------
create_box 1 R0
mass   1 10.0		
create_atoms 1 single  10 10 10 units box

# ---------------------
# PAIR STYLES
# ---------------------
pair_style  lj/cut 1 
pair_coeff  1 1  	0.0 	1.0  	

# -------------------- 
# FIXES 
# -------------------- 
velocity all set 10.0 0 0

variable x equal x[1]
variable fx equal fx[1]

variable EPSILON equal 0.1
variable SIGMA equal 2.0
variable DELTALJ equal 2.5
variable CUTOFF equal 5.0

fix WALL all wall/region R0 lj126Expanded ${EPSILON} ${SIGMA} ${DELTALJ} ${CUTOFF} 
fix NVE all nve

fix PRINT all print 1 "${x} ${fx}" file outputWALL.dat screen no

run 10000
