# ---------------------
# INITIALIZE SIMULATION 
# ---------------------
units metal 
dimension 3
boundary p p p
atom_style 	atomic
atom_modify map array
region r0 	block 0 20 0 20 0 20 units box 

# ---------------------
# CREATE ATOMS 
# ---------------------
create_box 1 r0
mass   1 10.0		
create_atoms 1 single  10 10 10 units box

# ---------------------
# PAIR STYLES
# ---------------------
pair_style  lj/cut 1 
pair_coeff  1 1  	0.0 	1.0  	

# -------------------- 
# FIXES 
# -------------------- 
variable vx1 equal vx[1]
variable vy1 equal vy[1]
variable vz1 equal vz[1]

variable FREQUENCY equal 10
variable SEED equal 12345
variable SIGMA equal 0.05

fix 1 all temp/andersen ${FREQUENCY} ${SEED} ${SIGMA}
fix 2 all nve
fix PRINT all print 1 "${vx1} ${vy1} ${vz1}" file outputANDERSEN.dat screen no

run 200000


