# ---------------------
# INITIALIZE SIMULATION 
# ---------------------
units metal 
dimension 3
boundary p p p
atom_style 	atomic
atom_modify map array

# ---------------------
# DEFINE REGIONS 
# ---------------------
region R0 	block 0 20 0 20 0 200 units box 

# ---------------------
# CREATE ATOMS 
# ---------------------
create_box 1 R0
mass   1 10.0		
create_atoms 1 single  8 8 100 units box
create_atoms 1 single  10 10 102 units box
create_atoms 1 single  10 10 105 units box

# ---------------------
# PAIR STYLES
# ---------------------
pair_style  lj/cut 10 
pair_coeff  1 1  	0.1 	2.5  	

# -------------------- 
# FIXES 
# -------------------- 
variable EPSILON equal 0.25
variable SIGMA equal 2.0
variable CUTOFF equal 7.0

compute C1 all property/atom id
compute C2 all property/atom z
#compute C2 all pe/atom
compute C3 all reduce max c_C1 c_C2 replace 1 2

variable zID equal c_C3[1] 
variable zMAX equal c_C3[2]
variable z equal z[v_zID]

fix NVE all nve
fix BOOST all addboost all v_zID LJ ${EPSILON} ${SIGMA} 0.0 ${CUTOFF}
fix PRINT all print 10 "${zID} ${zMAX} ${z}" file outputBOOST.dat screen no

dump DUMP all custom 1 outputAll.lammpstrj id x y z fx fy fz

thermo 10
thermo_style custom step v_zID c_C3[2] v_z

run 500
