# ---------------------
# INITIALISE SIMULATION 
# ---------------------
units metal 
dimension 3
boundary p p p
atom_style 		atomic
atom_modify map array

# ---------------------
# DEFINE REGIONS 
# ---------------------
region r0 	block 0 20 0 20 0 20 units box 

# ---------------------
# CREATE ATOMS 
# ---------------------
create_box 1 r0
mass   1 10.0		
create_atoms 1 single  10 10 10 units box
group G1 id 1
create_atoms 1 single  13 10 10 units box
group G2 id 2

# ---------------------
# PAIR STYLES
# ---------------------
pair_style  harmonic 5.0 
pair_coeff  1 1	1.0	2.0	2.0	  	

# -------------------- 
# FIXES 
# -------------------- 
compute SPRING_PE G1 group/group G2
variable SPRING_PE equal c_SPRING_PE
variable x2 equal x[2]
variable fx equal fx[2]

velocity G2 set 50.0 0 0
fix FREEZE 	G1 setforce 0 0 0 
fix NVE 	G2 nve
fix PRINT_PE all print 10 "${x2} ${fx} ${SPRING_PE}" file outputHARMONIC.dat 

run 10000
