# ---------------------
# INITIALIZE SIMULATION 
# ---------------------
clear 
units metal 
dimension 3
boundary p p p

atom_style 		bond
atom_modify map array

# ---------------------
# CREATE ATOMS 
# ---------------------
read_data Polymer_10.data
bond_style harmonic
bond_coeff 1 0 1

# ---------------------
# GROUPS
# ---------------------
group	GROUP_POLYMER 	type 1

# ---------------------
# PAIR STYLES
# ---------------------
pair_style  lj/cut 1 
pair_coeff  1 1  	0.0 	1.0  	

# -------------------- 
# FIXES 
# -------------------- 
velocity GROUP_POLYMER create 1.0 54321 dist gaussian 

variable FMAGNITUDE equal 0.01
fix 1 GROUP_POLYMER activeforce ${FMAGNITUDE} forward
#fix 2 all langevin 1.00 1.00 100.0 12345 zero yes
fix 3 all nve

dump DUMP all custom 100 outputAll.lammpstrj id type x y z fx fy fz

run 200


