units lj
atom_style full

read_data test.data

mass 1 1.0

special_bonds lj 0.3 0.5 0.7
pair_style lj/cut 5.0
pair_coeff 1 1 1.0 1.0 5.0

neighbor 0.3 bin
neigh_modify delay 0 every 20 check no

fix 1 all nve

run 100