# ---------------------
# INITIALIZE SIMULATION
# --------------------- 
units metal 
dimension 3
boundary p p p
atom_style 	atomic
#atom_modify map array
region R0 	block 0 20 0 20 0 20 units box 
region R_EVAP 	block 0 20 0 20 13 13.001 units box 

# ---------------------
# CREATE ATOMS 
# ---------------------
create_box 1 R0
mass   1 10.0		
create_atoms 1 single  8 8 7 units box
create_atoms 1 single  10 10 10 units box
create_atoms 1 single  10 10 12 units box

# ---------------------
# PAIR STYLES
# ---------------------
pair_style  lj/cut 10 
pair_coeff  1 1  	0	2.5  	

# -------------------- 
# FIXES 
# -------------------- 
velocity all set 0 0 1
variable TIME equal step

fix NVE all nve
fix PRINT all printEvaporate 1 "${TIME}" file outputPRINT.dat region R_EVAP title "Fix PrintEvaporate Timesteps"

run 7000
