# ---------------------
# INITIALISE SIMULATION 
# ---------------------
units metal 
dimension 3
boundary p p p
atom_style 	atomic
atom_modify map array

# ---------------------
# DEFINE REGIONS 
# ---------------------
region r0 	block 0 20 0 20 0 40 units box 

# ---------------------
# CREATE ATOMS 
# ---------------------
create_box 1 r0
mass   1 10.0		
create_atoms 1 single  10 10 10 units box
group G1 id 1
create_atoms 1 single  10 10 11 units box
group G2 id 2

# ---------------------
# PAIR STYLES
# ---------------------
pair_style  tableZ linear 10000 
pair_coeff  1 1	Table_Potential.table V_Table 12.0 17.0 1.0 -0.04 10.0

# -------------------- 
# FIXES 
# -------------------- 
compute TABLE_PE G1 group/group G2
variable TABLE_PE equal c_TABLE_PE
variable z2 equal z[2]
variable fz equal fz[2]

velocity G2 set 0 0 2.0
fix FREEZE 	G1 setforce 0 0 0 
fix NVE 	G2 nve
fix PRINT_PE all print 10 "${z2} ${fz} ${TABLE_PE}" file outputTABLE.dat 

run 1000
